15
68
39
81
94
14
45
83
85
17
98
57
87
67
19
61
51
2
42
44
24
37
0
79
6
32
90
78
9
33
58
69
7
75
28
8
48
74
21
26
82
43
13
54
50
63
66
22
70
38
31
53
80
49
29
36
73
72
60
92
55
16
71
41
93
30
5
12
52
35
4
25
20
86
91
84
56
88
23
64
47
34
76
46
99
3
18
1
89
97
27
59
40
77
62
96
95
65
11
10
